benchmarks_vrp/CMT5/tsp_classic/CMT5_15.vrp
NAME: CMT5_15
TYPE: CVRP
COMMENT: 1291.29 - Cluster Nr.15
DIMENSION: 11
CAPACITY: 200
EDGE_WEIGHT_TYPE: EUC_2D
NODE_COORD_TYPE: TWOD_COORDS
NODE_COORD_SECTION: 
1 52 64
4 55 65
8 57 58
2 63 65
10 62 63
6 62 57
11 55 60
5 63 69
7 35 35
3 57 68
9 67 5
DEPOT_SECTION: 
7
-1
DEMAND_SECTION: 
6 31
7 0
2 8
8 28
11 16
9 25
1 16
5 6
10 17
4 37
3 15
EOF
