benchmarks_vrp/CMT5/tsp_classic/CMT5_15.tour
NAME: CMT5_15 solution
TYPE: TOUR
TOUR_SECTION:
7 8 11 1 4 3 5 2 10 6 9 -1
-1
EOF